100
32
19
18
26
6
29
10
16
29
5
6
4
1
25
13
1
15
20
5
5
1
6
17
2
2
17
2
1
2
2
1
1
1
18
1
2
1
2
1
20
1
2
2
17
2
3
6
1
2
3
8
1
2
4
18
2
3
5
2
1
17
6
27
4
3
1
1
22
1
8
1
2
1
2
20
3
4
2
1
3
6
1
1
3
2
1
5
18
3
1
1
2
2
2
1
17
1
2
1
2
1